NAME: sample_self32
DIMENSION: 32
NODE_COORD_SECTION
1 38.24 20.42
 2 39.57 26.15
 3 40.56 25.32
 4 36.26 23.12
 5 33.48 10.54
 6 37.56 12.19
 7 38.42 13.11
 8 37.52 20.44
 9 117.5 121.3
 10 41.17 13.05
 11 36.08 -5.21
 12 38.47 15.13
 13 38.15 15.35
 14 37.51 15.17
 15 35.49 14.32
 16 39.36 19.56
 17 5.5 1.2
 18 54.1 -34.2
 19 27.1 7.5
 20 59.5 -1.82
 21 4.82 17.83
 22 21.47 83.96
 23 41.99 3.14
 24 17.66 61.57
 25 14.28 28.57
 26 31.36 99.99
 27 100.01 7.75
 28 75.10 105.16
 29 63.17 94.31
 30 87.46 -53.11
 31 -47.36 23.47
 32 14.19 8.08
EOF